NAME: CMT12_10
TYPE: CVRP
COMMENT: 819.56 - Cluster Nr.10
DIMENSION: 9
CAPACITY: 200
EDGE_WEIGHT_TYPE: EUC_2D
NODE_COORD_TYPE: TWOD_COORDS
NODE_COORD_SECTION: 
4 22 85
5 40 50
1 15 75
6 18 75
3 20 85
7 20 80
9 22 75
8 25 85
2 15 80
DEPOT_SECTION: 
5
-1
DEMAND_SECTION: 
7 40
8 20
9 30
6 20
4 10
1 20
3 40
2 10
5 0
EOF
